(declare-const X String)
; ^\s*[a-zA-Z,\s]+\s*$
(assert (str.in_re X (re.++ (re.* (re.union (str.to_re " ") (str.to_re "\u{9}") (str.to_re "\u{a}") (str.to_re "\u{c}") (str.to_re "\u{d}"))) (re.+ (re.union (re.range "a" "z") (re.range "A" "Z") (str.to_re ",") (str.to_re " ") (str.to_re "\u{9}") (str.to_re "\u{a}") (str.to_re "\u{c}") (str.to_re "\u{d}"))) (re.* (re.union (str.to_re " ") (str.to_re "\u{9}") (str.to_re "\u{a}") (str.to_re "\u{c}") (str.to_re "\u{d}"))) (str.to_re "\u{a}"))))
; Subject\x3a.*Host\x3a.*\x2Fproducts\x2Fspyblocs\x2F\sinternalcyber@yahoo\x2EcomHeadersRedirection
(assert (not (str.in_re X (re.++ (str.to_re "Subject:") (re.* re.allchar) (str.to_re "Host:") (re.* re.allchar) (str.to_re "/products/spyblocs/\u{13}") (re.union (str.to_re " ") (str.to_re "\u{9}") (str.to_re "\u{a}") (str.to_re "\u{c}") (str.to_re "\u{d}")) (str.to_re "internalcyber@yahoo.comHeadersRedirection\u{a}")))))
(check-sat)

(exit)
